\ENCODING=ISO-8859-1
\Problem name: MOMKP_p4_n500_m4_ins1

Maximize
 obj:
Subject To
 c1:	643 x1 + 366 x2 + 352 x3 + 967 x4 + 653 x5 + 876 x6 + 59 x7 + 410 x8 + 191 x9 + 752 x10 + 93 x11 + 552 x12 + 456 x13 + 417 x14 + 349 x15 + 957 x16 + 749 x17 + 759 x18 + 723 x19 + 366 x20 + 423 x21 + 992 x22 + 215 x23 + 3 x24 + 141 x25 + 364 x26 + 525 x27 + 190 x28 + 427 x29 + 898 x30 + 932 x31 + 972 x32 + 355 x33 + 674 x34 + 391 x35 + 449 x36 + 724 x37 + 148 x38 + 580 x39 + 281 x40 + 952 x41 + 345 x42 + 59 x43 + 516 x44 + 674 x45 + 697 x46 + 49 x47 + 537 x48 + 863 x49 + 236 x50 + 518 x51 + 718 x52 + 940 x53 + 757 x54 + 851 x55 + 519 x56 + 297 x57 + 860 x58 + 664 x59 + 141 x60 + 709 x61 + 611 x62 + 853 x63 + 561 x64 + 122 x65 + 155 x66 + 136 x67 + 58 x68 + 234 x69 + 119 x70 + 46 x71 + 498 x72 + 265 x73 + 665 x74 + 925 x75 + 456 x76 + 253 x77 + 492 x78 + 865 x79 + 546 x80 + 524 x81 + 739 x82 + 941 x83 + 56 x84 + 29 x85 + 760 x86 + 61 x87 + 57 x88 + 922 x89 + 126 x90 + 210 x91 + 104 x92 + 955 x93 + 195 x94 + 70 x95 + 903 x96 + 639 x97 + 145 x98 + 696 x99 + 343 x100 + 951 x101 + 212 x102 + 610 x103 + 727 x104 + 635 x105 + 161 x106 + 465 x107 + 699 x108 + 97 x109 + 52 x110 + 245 x111 + 135 x112 + 235 x113 + 18 x114 + 322 x115 + 444 x116 + 385 x117 + 265 x118 + 941 x119 + 985 x120 + 942 x121 + 948 x122 + 75 x123 + 70 x124 + 615 x125 + 124 x126 + 823 x127 + 5 x128 + 682 x129 + 579 x130 + 458 x131 + 651 x132 + 571 x133 + 67 x134 + 312 x135 + 502 x136 + 109 x137 + 647 x138 + 192 x139 + 902 x140 + 271 x141 + 840 x142 + 221 x143 + 864 x144 + 508 x145 + 194 x146 + 331 x147 + 505 x148 + 936 x149 + 752 x150 + 243 x151 + 544 x152 + 528 x153 + 637 x154 + 371 x155 + 56 x156 + 137 x157 + 316 x158 + 703 x159 + 980 x160 + 35 x161 + 227 x162 + 541 x163 + 812 x164 + 951 x165 + 772 x166 + 848 x167 + 767 x168 + 511 x169 + 4 x170 + 122 x171 + 441 x172 + 534 x173 + 767 x174 + 712 x175 + 167 x176 + 936 x177 + 452 x178 + 769 x179 + 584 x180 + 234 x181 + 684 x182 + 535 x183 + 614 x184 + 693 x185 + 177 x186 + 17 x187 + 333 x188 + 359 x189 + 981 x190 + 192 x191 + 116 x192 + 563 x193 + 225 x194 + 32 x195 + 986 x196 + 642 x197 + 631 x198 + 729 x199 + 107 x200 + 282 x201 + 481 x202 + 543 x203 + 483 x204 + 342 x205 + 499 x206 + 223 x207 + 185 x208 + 886 x209 + 574 x210 + 12 x211 + 584 x212 + 64 x213 + 975 x214 + 40 x215 + 250 x216 + 999 x217 + 544 x218 + 134 x219 + 198 x220 + 283 x221 + 934 x222 + 352 x223 + 572 x224 + 441 x225 + 771 x226 + 756 x227 + 822 x228 + 357 x229 + 628 x230 + 357 x231 + 281 x232 + 101 x233 + 853 x234 + 407 x235 + 220 x236 + 776 x237 + 611 x238 + 682 x239 + 865 x240 + 38 x241 + 410 x242 + 403 x243 + 434 x244 + 369 x245 + 217 x246 + 103 x247 + 149 x248 + 549 x249 + 619 x250 + 346 x251 + 506 x252 + 372 x253 + 279 x254 + 672 x255 + 685 x256 + 854 x257 + 362 x258 + 345 x259 + 224 x260 + 271 x261 + 35 x262 + 482 x263 + 691 x264 + 496 x265 + 567 x266 + 473 x267 + 870 x268 + 146 x269 + 663 x270 + 65 x271 + 397 x272 + 921 x273 + 943 x274 + 24 x275 + 781 x276 + 486 x277 + 752 x278 + 421 x279 + 647 x280 + 759 x281 + 344 x282 + 477 x283 + 834 x284 + 787 x285 + 800 x286 + 455 x287 + 662 x288 + 600 x289 + 166 x290 + 95 x291 + 423 x292 + 952 x293 + 500 x294 + 513 x295 + 606 x296 + 540 x297 + 65 x298 + 239 x299 + 438 x300 + 927 x301 + 663 x302 + 540 x303 + 309 x304 + 70 x305 + 685 x306 + 689 x307 + 138 x308 + 982 x309 + 141 x310 + 39 x311 + 486 x312 + 358 x313 + 728 x314 + 927 x315 + 318 x316 + 543 x317 + 265 x318 + 127 x319 + 888 x320 + 258 x321 + 343 x322 + 574 x323 + 371 x324 + 664 x325 + 423 x326 + 673 x327 + 476 x328 + 80 x329 + 458 x330 + 167 x331 + 887 x332 + 516 x333 + 371 x334 + 90 x335 + 306 x336 + 101 x337 + 283 x338 + 719 x339 + 200 x340 + 353 x341 + 856 x342 + 432 x343 + 53 x344 + 849 x345 + 915 x346 + 527 x347 + 349 x348 + 424 x349 + 586 x350 + 534 x351 + 618 x352 + 945 x353 + 726 x354 + 621 x355 + 582 x356 + 600 x357 + 421 x358 + 844 x359 + 389 x360 + 812 x361 + 618 x362 + 225 x363 + 807 x364 + 243 x365 + 459 x366 + 588 x367 + 964 x368 + 638 x369 + 915 x370 + 170 x371 + 760 x372 + 487 x373 + 122 x374 + 351 x375 + 370 x376 + 585 x377 + 578 x378 + 614 x379 + 112 x380 + 838 x381 + 731 x382 + 806 x383 + 517 x384 + 863 x385 + 905 x386 + 277 x387 + 821 x388 + 647 x389 + 324 x390 + 24 x391 + 72 x392 + 208 x393 + 553 x394 + 119 x395 + 974 x396 + 363 x397 + 583 x398 + 491 x399 + 266 x400 + 690 x401 + 660 x402 + 369 x403 + 330 x404 + 969 x405 + 841 x406 + 739 x407 + 406 x408 + 924 x409 + 755 x410 + 261 x411 + 278 x412 + 122 x413 + 812 x414 + 261 x415 + 425 x416 + 987 x417 + 610 x418 + 86 x419 + 883 x420 + 85 x421 + 877 x422 + 31 x423 + 662 x424 + 821 x425 + 335 x426 + 56 x427 + 725 x428 + 597 x429 + 847 x430 + 676 x431 + 141 x432 + 736 x433 + 126 x434 + 78 x435 + 981 x436 + 78 x437 + 438 x438 + 893 x439 + 696 x440 + 76 x441 + 320 x442 + 809 x443 + 848 x444 + 75 x445 + 925 x446 + 803 x447 + 285 x448 + 373 x449 + 399 x450 + 328 x451 + 582 x452 + 427 x453 + 113 x454 + 103 x455 + 935 x456 + 978 x457 + 868 x458 + 979 x459 + 188 x460 + 519 x461 + 339 x462 + 842 x463 + 852 x464 + 873 x465 + 521 x466 + 327 x467 + 274 x468 + 254 x469 + 482 x470 + 925 x471 + 256 x472 + 793 x473 + 743 x474 + 805 x475 + 541 x476 + 658 x477 + 382 x478 + 458 x479 + 449 x480 + 622 x481 + 898 x482 + 323 x483 + 758 x484 + 808 x485 + 438 x486 + 833 x487 + 74 x488 + 320 x489 + 192 x490 + 569 x491 + 442 x492 + 475 x493 + 828 x494 + 340 x495 + 72 x496 + 740 x497 + 189 x498 + 189 x499 + 328 x500 <= 123268.000000000000000
 c2:	634 x1 + 292 x2 + 907 x3 + 208 x4 + 833 x5 + 794 x6 + 64 x7 + 870 x8 + 989 x9 + 176 x10 + 600 x11 + 215 x12 + 644 x13 + 329 x14 + 54 x15 + 44 x16 + 828 x17 + 550 x18 + 164 x19 + 671 x20 + 566 x21 + 107 x22 + 778 x23 + 199 x24 + 433 x25 + 832 x26 + 105 x27 + 417 x28 + 985 x29 + 235 x30 + 632 x31 + 752 x32 + 513 x33 + 867 x34 + 190 x35 + 846 x36 + 342 x37 + 376 x38 + 369 x39 + 907 x40 + 422 x41 + 817 x42 + 263 x43 + 212 x44 + 898 x45 + 750 x46 + 547 x47 + 560 x48 + 16 x49 + 288 x50 + 162 x51 + 192 x52 + 212 x53 + 549 x54 + 990 x55 + 589 x56 + 287 x57 + 784 x58 + 194 x59 + 838 x60 + 872 x61 + 129 x62 + 200 x63 + 481 x64 + 883 x65 + 193 x66 + 784 x67 + 802 x68 + 703 x69 + 457 x70 + 545 x71 + 675 x72 + 933 x73 + 963 x74 + 61 x75 + 251 x76 + 381 x77 + 48 x78 + 328 x79 + 217 x80 + 827 x81 + 12 x82 + 777 x83 + 274 x84 + 298 x85 + 519 x86 + 396 x87 + 834 x88 + 399 x89 + 869 x90 + 319 x91 + 999 x92 + 442 x93 + 712 x94 + 404 x95 + 404 x96 + 665 x97 + 469 x98 + 47 x99 + 189 x100 + 149 x101 + 300 x102 + 616 x103 + 526 x104 + 960 x105 + 20 x106 + 731 x107 + 545 x108 + 175 x109 + 711 x110 + 894 x111 + 720 x112 + 877 x113 + 761 x114 + 546 x115 + 663 x116 + 713 x117 + 383 x118 + 390 x119 + 646 x120 + 521 x121 + 950 x122 + 776 x123 + 902 x124 + 510 x125 + 121 x126 + 957 x127 + 737 x128 + 937 x129 + 575 x130 + 996 x131 + 223 x132 + 919 x133 + 843 x134 + 342 x135 + 70 x136 + 873 x137 + 846 x138 + 896 x139 + 185 x140 + 671 x141 + 291 x142 + 476 x143 + 260 x144 + 479 x145 + 793 x146 + 893 x147 + 815 x148 + 120 x149 + 38 x150 + 866 x151 + 530 x152 + 99 x153 + 106 x154 + 981 x155 + 488 x156 + 276 x157 + 322 x158 + 379 x159 + 183 x160 + 246 x161 + 142 x162 + 230 x163 + 527 x164 + 333 x165 + 13 x166 + 754 x167 + 936 x168 + 432 x169 + 512 x170 + 534 x171 + 201 x172 + 270 x173 + 708 x174 + 812 x175 + 590 x176 + 871 x177 + 43 x178 + 130 x179 + 290 x180 + 495 x181 + 517 x182 + 225 x183 + 245 x184 + 47 x185 + 939 x186 + 469 x187 + 344 x188 + 413 x189 + 653 x190 + 390 x191 + 7 x192 + 293 x193 + 484 x194 + 703 x195 + 365 x196 + 559 x197 + 410 x198 + 854 x199 + 783 x200 + 395 x201 + 305 x202 + 739 x203 + 961 x204 + 219 x205 + 946 x206 + 372 x207 + 182 x208 + 992 x209 + 735 x210 + 384 x211 + 55 x212 + 359 x213 + 915 x214 + 835 x215 + 345 x216 + 132 x217 + 656 x218 + 897 x219 + 691 x220 + 208 x221 + 744 x222 + 214 x223 + 728 x224 + 712 x225 + 128 x226 + 22 x227 + 411 x228 + 238 x229 + 394 x230 + 144 x231 + 288 x232 + 380 x233 + 963 x234 + 728 x235 + 547 x236 + 310 x237 + 53 x238 + 901 x239 + 603 x240 + 167 x241 + 237 x242 + 440 x243 + 718 x244 + 311 x245 + 695 x246 + 335 x247 + 403 x248 + 355 x249 + 752 x250 + 273 x251 + 628 x252 + 189 x253 + 365 x254 + 811 x255 + 355 x256 + 62 x257 + 586 x258 + 378 x259 + 974 x260 + 625 x261 + 462 x262 + 633 x263 + 158 x264 + 466 x265 + 437 x266 + 301 x267 + 372 x268 + 111 x269 + 213 x270 + 575 x271 + 373 x272 + 190 x273 + 133 x274 + 203 x275 + 64 x276 + 959 x277 + 851 x278 + 567 x279 + 485 x280 + 643 x281 + 405 x282 + 261 x283 + 961 x284 + 269 x285 + 579 x286 + 644 x287 + 991 x288 + 832 x289 + 283 x290 + 852 x291 + 777 x292 + 985 x293 + 940 x294 + 297 x295 + 119 x296 + 198 x297 + 895 x298 + 450 x299 + 567 x300 + 807 x301 + 906 x302 + 378 x303 + 341 x304 + 780 x305 + 759 x306 + 158 x307 + 749 x308 + 528 x309 + 510 x310 + 409 x311 + 215 x312 + 852 x313 + 6 x314 + 341 x315 + 602 x316 + 831 x317 + 49 x318 + 914 x319 + 461 x320 + 204 x321 + 161 x322 + 644 x323 + 946 x324 + 197 x325 + 453 x326 + 616 x327 + 923 x328 + 207 x329 + 953 x330 + 214 x331 + 361 x332 + 589 x333 + 981 x334 + 494 x335 + 843 x336 + 49 x337 + 364 x338 + 684 x339 + 836 x340 + 249 x341 + 95 x342 + 710 x343 + 472 x344 + 231 x345 + 931 x346 + 416 x347 + 104 x348 + 643 x349 + 273 x350 + 557 x351 + 612 x352 + 292 x353 + 77 x354 + 305 x355 + 713 x356 + 149 x357 + 529 x358 + 805 x359 + 348 x360 + 661 x361 + 443 x362 + 523 x363 + 397 x364 + 193 x365 + 580 x366 + 610 x367 + 6 x368 + 342 x369 + 946 x370 + 276 x371 + 798 x372 + 434 x373 + 168 x374 + 54 x375 + 697 x376 + 26 x377 + 468 x378 + 439 x379 + 195 x380 + 714 x381 + 346 x382 + 781 x383 + 85 x384 + 368 x385 + 871 x386 + 509 x387 + 23 x388 + 41 x389 + 457 x390 + 585 x391 + 423 x392 + 816 x393 + 181 x394 + 191 x395 + 721 x396 + 204 x397 + 984 x398 + 919 x399 + 215 x400 + 394 x401 + 186 x402 + 549 x403 + 978 x404 + 171 x405 + 584 x406 + 297 x407 + 282 x408 + 576 x409 + 658 x410 + 787 x411 + 242 x412 + 130 x413 + 660 x414 + 226 x415 + 544 x416 + 630 x417 + 368 x418 + 46 x419 + 156 x420 + 618 x421 + 659 x422 + 180 x423 + 974 x424 + 929 x425 + 895 x426 + 619 x427 + 21 x428 + 981 x429 + 2 x430 + 813 x431 + 413 x432 + 870 x433 + 749 x434 + 472 x435 + 897 x436 + 629 x437 + 31 x438 + 726 x439 + 714 x440 + 982 x441 + 987 x442 + 185 x443 + 22 x444 + 62 x445 + 743 x446 + 571 x447 + 676 x448 + 512 x449 + 534 x450 + 829 x451 + 335 x452 + 471 x453 + 393 x454 + 246 x455 + 849 x456 + 647 x457 + 833 x458 + 327 x459 + 626 x460 + 428 x461 + 576 x462 + 492 x463 + 33 x464 + 664 x465 + 745 x466 + 133 x467 + 947 x468 + 287 x469 + 333 x470 + 206 x471 + 969 x472 + 742 x473 + 160 x474 + 716 x475 + 414 x476 + 683 x477 + 955 x478 + 2 x479 + 658 x480 + 534 x481 + 627 x482 + 890 x483 + 425 x484 + 200 x485 + 978 x486 + 15 x487 + 920 x488 + 315 x489 + 156 x490 + 258 x491 + 40 x492 + 298 x493 + 948 x494 + 588 x495 + 299 x496 + 530 x497 + 736 x498 + 276 x499 + 695 x500 <= 124426.000000000000000
 c3:	402 x1 + 74 x2 + 265 x3 + 281 x4 + 511 x5 + 561 x6 + 115 x7 + 779 x8 + 19 x9 + 184 x10 + 901 x11 + 761 x12 + 750 x13 + 813 x14 + 613 x15 + 161 x16 + 486 x17 + 101 x18 + 151 x19 + 82 x20 + 667 x21 + 774 x22 + 638 x23 + 406 x24 + 118 x25 + 493 x26 + 772 x27 + 690 x28 + 451 x29 + 33 x30 + 925 x31 + 349 x32 + 308 x33 + 511 x34 + 703 x35 + 207 x36 + 409 x37 + 95 x38 + 165 x39 + 277 x40 + 101 x41 + 222 x42 + 156 x43 + 210 x44 + 306 x45 + 478 x46 + 269 x47 + 456 x48 + 551 x49 + 980 x50 + 821 x51 + 719 x52 + 441 x53 + 512 x54 + 113 x55 + 973 x56 + 960 x57 + 114 x58 + 918 x59 + 711 x60 + 804 x61 + 859 x62 + 63 x63 + 758 x64 + 120 x65 + 890 x66 + 592 x67 + 262 x68 + 717 x69 + 576 x70 + 843 x71 + 547 x72 + 809 x73 + 158 x74 + 161 x75 + 789 x76 + 578 x77 + 989 x78 + 484 x79 + 861 x80 + 934 x81 + 502 x82 + 698 x83 + 544 x84 + 229 x85 + 947 x86 + 452 x87 + 700 x88 + 209 x89 + 853 x90 + 400 x91 + 425 x92 + 196 x93 + 960 x94 + 492 x95 + 178 x96 + 795 x97 + 900 x98 + 204 x99 + 51 x100 + 642 x101 + 38 x102 + 941 x103 + 333 x104 + 800 x105 + 678 x106 + 811 x107 + 537 x108 + 100 x109 + 394 x110 + 1000 x111 + 337 x112 + 712 x113 + 547 x114 + 958 x115 + 525 x116 + 853 x117 + 333 x118 + 7 x119 + 420 x120 + 328 x121 + 813 x122 + 635 x123 + 617 x124 + 859 x125 + 455 x126 + 898 x127 + 736 x128 + 303 x129 + 454 x130 + 82 x131 + 673 x132 + 88 x133 + 263 x134 + 907 x135 + 789 x136 + 809 x137 + 303 x138 + 969 x139 + 518 x140 + 338 x141 + 724 x142 + 682 x143 + 716 x144 + 47 x145 + 898 x146 + 209 x147 + 885 x148 + 531 x149 + 680 x150 + 18 x151 + 604 x152 + 557 x153 + 162 x154 + 934 x155 + 398 x156 + 490 x157 + 752 x158 + 322 x159 + 505 x160 + 691 x161 + 902 x162 + 739 x163 + 710 x164 + 888 x165 + 181 x166 + 5 x167 + 240 x168 + 348 x169 + 386 x170 + 236 x171 + 357 x172 + 219 x173 + 229 x174 + 514 x175 + 5 x176 + 106 x177 + 173 x178 + 634 x179 + 873 x180 + 711 x181 + 675 x182 + 76 x183 + 365 x184 + 448 x185 + 436 x186 + 955 x187 + 833 x188 + 712 x189 + 707 x190 + 923 x191 + 428 x192 + 319 x193 + 358 x194 + 423 x195 + 610 x196 + 33 x197 + 239 x198 + 922 x199 + 121 x200 + 10 x201 + 645 x202 + 484 x203 + 166 x204 + 296 x205 + 836 x206 + 599 x207 + 85 x208 + 906 x209 + 515 x210 + 619 x211 + 528 x212 + 695 x213 + 221 x214 + 431 x215 + 759 x216 + 866 x217 + 3 x218 + 784 x219 + 849 x220 + 541 x221 + 88 x222 + 983 x223 + 322 x224 + 92 x225 + 68 x226 + 422 x227 + 238 x228 + 211 x229 + 564 x230 + 163 x231 + 269 x232 + 930 x233 + 98 x234 + 553 x235 + 312 x236 + 584 x237 + 457 x238 + 627 x239 + 11 x240 + 774 x241 + 741 x242 + 514 x243 + 147 x244 + 789 x245 + 440 x246 + 145 x247 + 945 x248 + 218 x249 + 63 x250 + 247 x251 + 327 x252 + 225 x253 + 183 x254 + 900 x255 + 715 x256 + 689 x257 + 578 x258 + 456 x259 + 90 x260 + 270 x261 + 502 x262 + 656 x263 + 703 x264 + 788 x265 + 592 x266 + 18 x267 + 492 x268 + 795 x269 + 452 x270 + 708 x271 + 480 x272 + 278 x273 + 657 x274 + 712 x275 + 585 x276 + 688 x277 + 899 x278 + 939 x279 + 492 x280 + 225 x281 + 880 x282 + 973 x283 + 707 x284 + 173 x285 + 192 x286 + 195 x287 + 238 x288 + 406 x289 + 798 x290 + 284 x291 + 77 x292 + 291 x293 + 380 x294 + 145 x295 + 309 x296 + 345 x297 + 342 x298 + 497 x299 + 121 x300 + 265 x301 + 934 x302 + 771 x303 + 827 x304 + 602 x305 + 744 x306 + 805 x307 + 651 x308 + 249 x309 + 382 x310 + 116 x311 + 143 x312 + 918 x313 + 855 x314 + 493 x315 + 916 x316 + 952 x317 + 835 x318 + 740 x319 + 932 x320 + 315 x321 + 706 x322 + 635 x323 + 976 x324 + 210 x325 + 438 x326 + 262 x327 + 151 x328 + 136 x329 + 398 x330 + 804 x331 + 176 x332 + 563 x333 + 157 x334 + 400 x335 + 797 x336 + 243 x337 + 10 x338 + 424 x339 + 17 x340 + 327 x341 + 657 x342 + 870 x343 + 747 x344 + 105 x345 + 914 x346 + 910 x347 + 211 x348 + 595 x349 + 976 x350 + 63 x351 + 476 x352 + 497 x353 + 877 x354 + 741 x355 + 282 x356 + 193 x357 + 436 x358 + 758 x359 + 166 x360 + 777 x361 + 871 x362 + 492 x363 + 657 x364 + 416 x365 + 898 x366 + 763 x367 + 773 x368 + 936 x369 + 832 x370 + 635 x371 + 538 x372 + 634 x373 + 172 x374 + 279 x375 + 559 x376 + 442 x377 + 354 x378 + 527 x379 + 799 x380 + 524 x381 + 999 x382 + 740 x383 + 959 x384 + 416 x385 + 719 x386 + 802 x387 + 284 x388 + 570 x389 + 278 x390 + 506 x391 + 930 x392 + 661 x393 + 473 x394 + 617 x395 + 283 x396 + 712 x397 + 845 x398 + 147 x399 + 780 x400 + 265 x401 + 648 x402 + 308 x403 + 167 x404 + 114 x405 + 359 x406 + 241 x407 + 780 x408 + 826 x409 + 72 x410 + 386 x411 + 753 x412 + 629 x413 + 201 x414 + 538 x415 + 876 x416 + 542 x417 + 472 x418 + 290 x419 + 294 x420 + 364 x421 + 156 x422 + 963 x423 + 194 x424 + 26 x425 + 980 x426 + 506 x427 + 870 x428 + 572 x429 + 439 x430 + 265 x431 + 18 x432 + 895 x433 + 499 x434 + 748 x435 + 343 x436 + 336 x437 + 330 x438 + 306 x439 + 714 x440 + 304 x441 + 258 x442 + 565 x443 + 328 x444 + 958 x445 + 860 x446 + 42 x447 + 596 x448 + 661 x449 + 208 x450 + 644 x451 + 879 x452 + 759 x453 + 406 x454 + 6 x455 + 351 x456 + 123 x457 + 304 x458 + 689 x459 + 723 x460 + 507 x461 + 566 x462 + 109 x463 + 558 x464 + 729 x465 + 490 x466 + 531 x467 + 763 x468 + 867 x469 + 950 x470 + 378 x471 + 72 x472 + 628 x473 + 474 x474 + 576 x475 + 341 x476 + 485 x477 + 242 x478 + 724 x479 + 662 x480 + 100 x481 + 599 x482 + 578 x483 + 167 x484 + 868 x485 + 349 x486 + 334 x487 + 200 x488 + 277 x489 + 653 x490 + 428 x491 + 402 x492 + 189 x493 + 564 x494 + 95 x495 + 649 x496 + 287 x497 + 860 x498 + 737 x499 + 450 x500 <= 125611.500000000000000
 c4:	900 x1 + 761 x2 + 483 x3 + 206 x4 + 167 x5 + 342 x6 + 973 x7 + 168 x8 + 884 x9 + 753 x10 + 176 x11 + 259 x12 + 36 x13 + 149 x14 + 770 x15 + 7 x16 + 498 x17 + 287 x18 + 530 x19 + 646 x20 + 362 x21 + 67 x22 + 796 x23 + 26 x24 + 523 x25 + 983 x26 + 759 x27 + 410 x28 + 98 x29 + 376 x30 + 413 x31 + 149 x32 + 89 x33 + 524 x34 + 531 x35 + 646 x36 + 64 x37 + 856 x38 + 507 x39 + 136 x40 + 987 x41 + 859 x42 + 342 x43 + 211 x44 + 651 x45 + 194 x46 + 637 x47 + 575 x48 + 386 x49 + 205 x50 + 65 x51 + 305 x52 + 329 x53 + 954 x54 + 529 x55 + 972 x56 + 804 x57 + 361 x58 + 221 x59 + 370 x60 + 769 x61 + 944 x62 + 345 x63 + 163 x64 + 484 x65 + 984 x66 + 20 x67 + 21 x68 + 543 x69 + 303 x70 + 969 x71 + 669 x72 + 320 x73 + 631 x74 + 285 x75 + 981 x76 + 443 x77 + 902 x78 + 866 x79 + 302 x80 + 194 x81 + 72 x82 + 228 x83 + 896 x84 + 906 x85 + 19 x86 + 403 x87 + 872 x88 + 24 x89 + 145 x90 + 720 x91 + 696 x92 + 220 x93 + 995 x94 + 355 x95 + 285 x96 + 597 x97 + 563 x98 + 564 x99 + 678 x100 + 372 x101 + 339 x102 + 584 x103 + 144 x104 + 341 x105 + 428 x106 + 958 x107 + 210 x108 + 988 x109 + 274 x110 + 115 x111 + 877 x112 + 748 x113 + 302 x114 + 731 x115 + 547 x116 + 134 x117 + 100 x118 + 929 x119 + 685 x120 + 336 x121 + 303 x122 + 153 x123 + 733 x124 + 148 x125 + 97 x126 + 468 x127 + 867 x128 + 866 x129 + 903 x130 + 668 x131 + 62 x132 + 96 x133 + 683 x134 + 152 x135 + 33 x136 + 433 x137 + 292 x138 + 665 x139 + 177 x140 + 636 x141 + 908 x142 + 542 x143 + 12 x144 + 568 x145 + 761 x146 + 102 x147 + 564 x148 + 364 x149 + 566 x150 + 589 x151 + 323 x152 + 587 x153 + 714 x154 + 1000 x155 + 697 x156 + 559 x157 + 649 x158 + 444 x159 + 516 x160 + 125 x161 + 394 x162 + 187 x163 + 496 x164 + 875 x165 + 657 x166 + 369 x167 + 759 x168 + 141 x169 + 246 x170 + 830 x171 + 803 x172 + 53 x173 + 6 x174 + 277 x175 + 210 x176 + 868 x177 + 528 x178 + 525 x179 + 584 x180 + 492 x181 + 154 x182 + 133 x183 + 27 x184 + 321 x185 + 244 x186 + 861 x187 + 443 x188 + 312 x189 + 349 x190 + 314 x191 + 97 x192 + 437 x193 + 806 x194 + 99 x195 + 778 x196 + 107 x197 + 412 x198 + 738 x199 + 75 x200 + 704 x201 + 226 x202 + 461 x203 + 647 x204 + 983 x205 + 294 x206 + 486 x207 + 999 x208 + 258 x209 + 434 x210 + 535 x211 + 962 x212 + 959 x213 + 198 x214 + 282 x215 + 293 x216 + 474 x217 + 972 x218 + 456 x219 + 4 x220 + 268 x221 + 28 x222 + 80 x223 + 801 x224 + 27 x225 + 962 x226 + 266 x227 + 276 x228 + 274 x229 + 932 x230 + 732 x231 + 989 x232 + 58 x233 + 920 x234 + 758 x235 + 678 x236 + 944 x237 + 406 x238 + 537 x239 + 164 x240 + 577 x241 + 225 x242 + 789 x243 + 919 x244 + 52 x245 + 100 x246 + 259 x247 + 872 x248 + 447 x249 + 426 x250 + 392 x251 + 819 x252 + 837 x253 + 583 x254 + 12 x255 + 541 x256 + 510 x257 + 597 x258 + 137 x259 + 536 x260 + 703 x261 + 34 x262 + 328 x263 + 764 x264 + 299 x265 + 464 x266 + 200 x267 + 40 x268 + 770 x269 + 268 x270 + 536 x271 + 281 x272 + 522 x273 + 628 x274 + 63 x275 + 90 x276 + 835 x277 + 90 x278 + 794 x279 + 77 x280 + 799 x281 + 118 x282 + 862 x283 + 665 x284 + 274 x285 + 972 x286 + 583 x287 + 253 x288 + 502 x289 + 897 x290 + 280 x291 + 43 x292 + 194 x293 + 132 x294 + 4 x295 + 224 x296 + 220 x297 + 210 x298 + 460 x299 + 212 x300 + 605 x301 + 410 x302 + 625 x303 + 181 x304 + 556 x305 + 819 x306 + 485 x307 + 209 x308 + 917 x309 + 2 x310 + 581 x311 + 939 x312 + 19 x313 + 472 x314 + 178 x315 + 797 x316 + 611 x317 + 524 x318 + 537 x319 + 432 x320 + 476 x321 + 29 x322 + 919 x323 + 623 x324 + 164 x325 + 475 x326 + 672 x327 + 683 x328 + 236 x329 + 726 x330 + 794 x331 + 386 x332 + 367 x333 + 191 x334 + 150 x335 + 721 x336 + 999 x337 + 958 x338 + 303 x339 + 492 x340 + 985 x341 + 499 x342 + 590 x343 + 587 x344 + 290 x345 + 665 x346 + 308 x347 + 40 x348 + 193 x349 + 399 x350 + 121 x351 + 830 x352 + 903 x353 + 377 x354 + 861 x355 + 508 x356 + 572 x357 + 375 x358 + 54 x359 + 474 x360 + 532 x361 + 261 x362 + 810 x363 + 628 x364 + 826 x365 + 35 x366 + 725 x367 + 548 x368 + 867 x369 + 117 x370 + 652 x371 + 724 x372 + 735 x373 + 309 x374 + 987 x375 + 101 x376 + 956 x377 + 319 x378 + 36 x379 + 698 x380 + 443 x381 + 822 x382 + 17 x383 + 456 x384 + 111 x385 + 773 x386 + 268 x387 + 106 x388 + 155 x389 + 281 x390 + 836 x391 + 263 x392 + 915 x393 + 581 x394 + 3 x395 + 871 x396 + 525 x397 + 269 x398 + 167 x399 + 567 x400 + 409 x401 + 656 x402 + 21 x403 + 401 x404 + 248 x405 + 64 x406 + 212 x407 + 120 x408 + 289 x409 + 275 x410 + 569 x411 + 410 x412 + 26 x413 + 383 x414 + 479 x415 + 110 x416 + 196 x417 + 265 x418 + 954 x419 + 464 x420 + 495 x421 + 167 x422 + 444 x423 + 898 x424 + 353 x425 + 599 x426 + 759 x427 + 998 x428 + 89 x429 + 215 x430 + 331 x431 + 474 x432 + 728 x433 + 311 x434 + 19 x435 + 122 x436 + 843 x437 + 388 x438 + 211 x439 + 76 x440 + 794 x441 + 590 x442 + 165 x443 + 224 x444 + 988 x445 + 971 x446 + 196 x447 + 383 x448 + 343 x449 + 349 x450 + 88 x451 + 502 x452 + 954 x453 + 378 x454 + 804 x455 + 91 x456 + 814 x457 + 980 x458 + 508 x459 + 527 x460 + 149 x461 + 96 x462 + 43 x463 + 452 x464 + 393 x465 + 338 x466 + 371 x467 + 664 x468 + 152 x469 + 41 x470 + 127 x471 + 122 x472 + 62 x473 + 766 x474 + 734 x475 + 133 x476 + 851 x477 + 611 x478 + 128 x479 + 588 x480 + 735 x481 + 506 x482 + 190 x483 + 85 x484 + 436 x485 + 859 x486 + 349 x487 + 505 x488 + 891 x489 + 834 x490 + 875 x491 + 82 x492 + 953 x493 + 200 x494 + 861 x495 + 245 x496 + 667 x497 + 673 x498 + 160 x499 + 674 x500 <= 115687.000000000000000
Bounds
 0 <= x1 <= 1
 0 <= x2 <= 1
 0 <= x3 <= 1
 0 <= x4 <= 1
 0 <= x5 <= 1
 0 <= x6 <= 1
 0 <= x7 <= 1
 0 <= x8 <= 1
 0 <= x9 <= 1
 0 <= x10 <= 1
 0 <= x11 <= 1
 0 <= x12 <= 1
 0 <= x13 <= 1
 0 <= x14 <= 1
 0 <= x15 <= 1
 0 <= x16 <= 1
 0 <= x17 <= 1
 0 <= x18 <= 1
 0 <= x19 <= 1
 0 <= x20 <= 1
 0 <= x21 <= 1
 0 <= x22 <= 1
 0 <= x23 <= 1
 0 <= x24 <= 1
 0 <= x25 <= 1
 0 <= x26 <= 1
 0 <= x27 <= 1
 0 <= x28 <= 1
 0 <= x29 <= 1
 0 <= x30 <= 1
 0 <= x31 <= 1
 0 <= x32 <= 1
 0 <= x33 <= 1
 0 <= x34 <= 1
 0 <= x35 <= 1
 0 <= x36 <= 1
 0 <= x37 <= 1
 0 <= x38 <= 1
 0 <= x39 <= 1
 0 <= x40 <= 1
 0 <= x41 <= 1
 0 <= x42 <= 1
 0 <= x43 <= 1
 0 <= x44 <= 1
 0 <= x45 <= 1
 0 <= x46 <= 1
 0 <= x47 <= 1
 0 <= x48 <= 1
 0 <= x49 <= 1
 0 <= x50 <= 1
 0 <= x51 <= 1
 0 <= x52 <= 1
 0 <= x53 <= 1
 0 <= x54 <= 1
 0 <= x55 <= 1
 0 <= x56 <= 1
 0 <= x57 <= 1
 0 <= x58 <= 1
 0 <= x59 <= 1
 0 <= x60 <= 1
 0 <= x61 <= 1
 0 <= x62 <= 1
 0 <= x63 <= 1
 0 <= x64 <= 1
 0 <= x65 <= 1
 0 <= x66 <= 1
 0 <= x67 <= 1
 0 <= x68 <= 1
 0 <= x69 <= 1
 0 <= x70 <= 1
 0 <= x71 <= 1
 0 <= x72 <= 1
 0 <= x73 <= 1
 0 <= x74 <= 1
 0 <= x75 <= 1
 0 <= x76 <= 1
 0 <= x77 <= 1
 0 <= x78 <= 1
 0 <= x79 <= 1
 0 <= x80 <= 1
 0 <= x81 <= 1
 0 <= x82 <= 1
 0 <= x83 <= 1
 0 <= x84 <= 1
 0 <= x85 <= 1
 0 <= x86 <= 1
 0 <= x87 <= 1
 0 <= x88 <= 1
 0 <= x89 <= 1
 0 <= x90 <= 1
 0 <= x91 <= 1
 0 <= x92 <= 1
 0 <= x93 <= 1
 0 <= x94 <= 1
 0 <= x95 <= 1
 0 <= x96 <= 1
 0 <= x97 <= 1
 0 <= x98 <= 1
 0 <= x99 <= 1
 0 <= x100 <= 1
 0 <= x101 <= 1
 0 <= x102 <= 1
 0 <= x103 <= 1
 0 <= x104 <= 1
 0 <= x105 <= 1
 0 <= x106 <= 1
 0 <= x107 <= 1
 0 <= x108 <= 1
 0 <= x109 <= 1
 0 <= x110 <= 1
 0 <= x111 <= 1
 0 <= x112 <= 1
 0 <= x113 <= 1
 0 <= x114 <= 1
 0 <= x115 <= 1
 0 <= x116 <= 1
 0 <= x117 <= 1
 0 <= x118 <= 1
 0 <= x119 <= 1
 0 <= x120 <= 1
 0 <= x121 <= 1
 0 <= x122 <= 1
 0 <= x123 <= 1
 0 <= x124 <= 1
 0 <= x125 <= 1
 0 <= x126 <= 1
 0 <= x127 <= 1
 0 <= x128 <= 1
 0 <= x129 <= 1
 0 <= x130 <= 1
 0 <= x131 <= 1
 0 <= x132 <= 1
 0 <= x133 <= 1
 0 <= x134 <= 1
 0 <= x135 <= 1
 0 <= x136 <= 1
 0 <= x137 <= 1
 0 <= x138 <= 1
 0 <= x139 <= 1
 0 <= x140 <= 1
 0 <= x141 <= 1
 0 <= x142 <= 1
 0 <= x143 <= 1
 0 <= x144 <= 1
 0 <= x145 <= 1
 0 <= x146 <= 1
 0 <= x147 <= 1
 0 <= x148 <= 1
 0 <= x149 <= 1
 0 <= x150 <= 1
 0 <= x151 <= 1
 0 <= x152 <= 1
 0 <= x153 <= 1
 0 <= x154 <= 1
 0 <= x155 <= 1
 0 <= x156 <= 1
 0 <= x157 <= 1
 0 <= x158 <= 1
 0 <= x159 <= 1
 0 <= x160 <= 1
 0 <= x161 <= 1
 0 <= x162 <= 1
 0 <= x163 <= 1
 0 <= x164 <= 1
 0 <= x165 <= 1
 0 <= x166 <= 1
 0 <= x167 <= 1
 0 <= x168 <= 1
 0 <= x169 <= 1
 0 <= x170 <= 1
 0 <= x171 <= 1
 0 <= x172 <= 1
 0 <= x173 <= 1
 0 <= x174 <= 1
 0 <= x175 <= 1
 0 <= x176 <= 1
 0 <= x177 <= 1
 0 <= x178 <= 1
 0 <= x179 <= 1
 0 <= x180 <= 1
 0 <= x181 <= 1
 0 <= x182 <= 1
 0 <= x183 <= 1
 0 <= x184 <= 1
 0 <= x185 <= 1
 0 <= x186 <= 1
 0 <= x187 <= 1
 0 <= x188 <= 1
 0 <= x189 <= 1
 0 <= x190 <= 1
 0 <= x191 <= 1
 0 <= x192 <= 1
 0 <= x193 <= 1
 0 <= x194 <= 1
 0 <= x195 <= 1
 0 <= x196 <= 1
 0 <= x197 <= 1
 0 <= x198 <= 1
 0 <= x199 <= 1
 0 <= x200 <= 1
 0 <= x201 <= 1
 0 <= x202 <= 1
 0 <= x203 <= 1
 0 <= x204 <= 1
 0 <= x205 <= 1
 0 <= x206 <= 1
 0 <= x207 <= 1
 0 <= x208 <= 1
 0 <= x209 <= 1
 0 <= x210 <= 1
 0 <= x211 <= 1
 0 <= x212 <= 1
 0 <= x213 <= 1
 0 <= x214 <= 1
 0 <= x215 <= 1
 0 <= x216 <= 1
 0 <= x217 <= 1
 0 <= x218 <= 1
 0 <= x219 <= 1
 0 <= x220 <= 1
 0 <= x221 <= 1
 0 <= x222 <= 1
 0 <= x223 <= 1
 0 <= x224 <= 1
 0 <= x225 <= 1
 0 <= x226 <= 1
 0 <= x227 <= 1
 0 <= x228 <= 1
 0 <= x229 <= 1
 0 <= x230 <= 1
 0 <= x231 <= 1
 0 <= x232 <= 1
 0 <= x233 <= 1
 0 <= x234 <= 1
 0 <= x235 <= 1
 0 <= x236 <= 1
 0 <= x237 <= 1
 0 <= x238 <= 1
 0 <= x239 <= 1
 0 <= x240 <= 1
 0 <= x241 <= 1
 0 <= x242 <= 1
 0 <= x243 <= 1
 0 <= x244 <= 1
 0 <= x245 <= 1
 0 <= x246 <= 1
 0 <= x247 <= 1
 0 <= x248 <= 1
 0 <= x249 <= 1
 0 <= x250 <= 1
 0 <= x251 <= 1
 0 <= x252 <= 1
 0 <= x253 <= 1
 0 <= x254 <= 1
 0 <= x255 <= 1
 0 <= x256 <= 1
 0 <= x257 <= 1
 0 <= x258 <= 1
 0 <= x259 <= 1
 0 <= x260 <= 1
 0 <= x261 <= 1
 0 <= x262 <= 1
 0 <= x263 <= 1
 0 <= x264 <= 1
 0 <= x265 <= 1
 0 <= x266 <= 1
 0 <= x267 <= 1
 0 <= x268 <= 1
 0 <= x269 <= 1
 0 <= x270 <= 1
 0 <= x271 <= 1
 0 <= x272 <= 1
 0 <= x273 <= 1
 0 <= x274 <= 1
 0 <= x275 <= 1
 0 <= x276 <= 1
 0 <= x277 <= 1
 0 <= x278 <= 1
 0 <= x279 <= 1
 0 <= x280 <= 1
 0 <= x281 <= 1
 0 <= x282 <= 1
 0 <= x283 <= 1
 0 <= x284 <= 1
 0 <= x285 <= 1
 0 <= x286 <= 1
 0 <= x287 <= 1
 0 <= x288 <= 1
 0 <= x289 <= 1
 0 <= x290 <= 1
 0 <= x291 <= 1
 0 <= x292 <= 1
 0 <= x293 <= 1
 0 <= x294 <= 1
 0 <= x295 <= 1
 0 <= x296 <= 1
 0 <= x297 <= 1
 0 <= x298 <= 1
 0 <= x299 <= 1
 0 <= x300 <= 1
 0 <= x301 <= 1
 0 <= x302 <= 1
 0 <= x303 <= 1
 0 <= x304 <= 1
 0 <= x305 <= 1
 0 <= x306 <= 1
 0 <= x307 <= 1
 0 <= x308 <= 1
 0 <= x309 <= 1
 0 <= x310 <= 1
 0 <= x311 <= 1
 0 <= x312 <= 1
 0 <= x313 <= 1
 0 <= x314 <= 1
 0 <= x315 <= 1
 0 <= x316 <= 1
 0 <= x317 <= 1
 0 <= x318 <= 1
 0 <= x319 <= 1
 0 <= x320 <= 1
 0 <= x321 <= 1
 0 <= x322 <= 1
 0 <= x323 <= 1
 0 <= x324 <= 1
 0 <= x325 <= 1
 0 <= x326 <= 1
 0 <= x327 <= 1
 0 <= x328 <= 1
 0 <= x329 <= 1
 0 <= x330 <= 1
 0 <= x331 <= 1
 0 <= x332 <= 1
 0 <= x333 <= 1
 0 <= x334 <= 1
 0 <= x335 <= 1
 0 <= x336 <= 1
 0 <= x337 <= 1
 0 <= x338 <= 1
 0 <= x339 <= 1
 0 <= x340 <= 1
 0 <= x341 <= 1
 0 <= x342 <= 1
 0 <= x343 <= 1
 0 <= x344 <= 1
 0 <= x345 <= 1
 0 <= x346 <= 1
 0 <= x347 <= 1
 0 <= x348 <= 1
 0 <= x349 <= 1
 0 <= x350 <= 1
 0 <= x351 <= 1
 0 <= x352 <= 1
 0 <= x353 <= 1
 0 <= x354 <= 1
 0 <= x355 <= 1
 0 <= x356 <= 1
 0 <= x357 <= 1
 0 <= x358 <= 1
 0 <= x359 <= 1
 0 <= x360 <= 1
 0 <= x361 <= 1
 0 <= x362 <= 1
 0 <= x363 <= 1
 0 <= x364 <= 1
 0 <= x365 <= 1
 0 <= x366 <= 1
 0 <= x367 <= 1
 0 <= x368 <= 1
 0 <= x369 <= 1
 0 <= x370 <= 1
 0 <= x371 <= 1
 0 <= x372 <= 1
 0 <= x373 <= 1
 0 <= x374 <= 1
 0 <= x375 <= 1
 0 <= x376 <= 1
 0 <= x377 <= 1
 0 <= x378 <= 1
 0 <= x379 <= 1
 0 <= x380 <= 1
 0 <= x381 <= 1
 0 <= x382 <= 1
 0 <= x383 <= 1
 0 <= x384 <= 1
 0 <= x385 <= 1
 0 <= x386 <= 1
 0 <= x387 <= 1
 0 <= x388 <= 1
 0 <= x389 <= 1
 0 <= x390 <= 1
 0 <= x391 <= 1
 0 <= x392 <= 1
 0 <= x393 <= 1
 0 <= x394 <= 1
 0 <= x395 <= 1
 0 <= x396 <= 1
 0 <= x397 <= 1
 0 <= x398 <= 1
 0 <= x399 <= 1
 0 <= x400 <= 1
 0 <= x401 <= 1
 0 <= x402 <= 1
 0 <= x403 <= 1
 0 <= x404 <= 1
 0 <= x405 <= 1
 0 <= x406 <= 1
 0 <= x407 <= 1
 0 <= x408 <= 1
 0 <= x409 <= 1
 0 <= x410 <= 1
 0 <= x411 <= 1
 0 <= x412 <= 1
 0 <= x413 <= 1
 0 <= x414 <= 1
 0 <= x415 <= 1
 0 <= x416 <= 1
 0 <= x417 <= 1
 0 <= x418 <= 1
 0 <= x419 <= 1
 0 <= x420 <= 1
 0 <= x421 <= 1
 0 <= x422 <= 1
 0 <= x423 <= 1
 0 <= x424 <= 1
 0 <= x425 <= 1
 0 <= x426 <= 1
 0 <= x427 <= 1
 0 <= x428 <= 1
 0 <= x429 <= 1
 0 <= x430 <= 1
 0 <= x431 <= 1
 0 <= x432 <= 1
 0 <= x433 <= 1
 0 <= x434 <= 1
 0 <= x435 <= 1
 0 <= x436 <= 1
 0 <= x437 <= 1
 0 <= x438 <= 1
 0 <= x439 <= 1
 0 <= x440 <= 1
 0 <= x441 <= 1
 0 <= x442 <= 1
 0 <= x443 <= 1
 0 <= x444 <= 1
 0 <= x445 <= 1
 0 <= x446 <= 1
 0 <= x447 <= 1
 0 <= x448 <= 1
 0 <= x449 <= 1
 0 <= x450 <= 1
 0 <= x451 <= 1
 0 <= x452 <= 1
 0 <= x453 <= 1
 0 <= x454 <= 1
 0 <= x455 <= 1
 0 <= x456 <= 1
 0 <= x457 <= 1
 0 <= x458 <= 1
 0 <= x459 <= 1
 0 <= x460 <= 1
 0 <= x461 <= 1
 0 <= x462 <= 1
 0 <= x463 <= 1
 0 <= x464 <= 1
 0 <= x465 <= 1
 0 <= x466 <= 1
 0 <= x467 <= 1
 0 <= x468 <= 1
 0 <= x469 <= 1
 0 <= x470 <= 1
 0 <= x471 <= 1
 0 <= x472 <= 1
 0 <= x473 <= 1
 0 <= x474 <= 1
 0 <= x475 <= 1
 0 <= x476 <= 1
 0 <= x477 <= 1
 0 <= x478 <= 1
 0 <= x479 <= 1
 0 <= x480 <= 1
 0 <= x481 <= 1
 0 <= x482 <= 1
 0 <= x483 <= 1
 0 <= x484 <= 1
 0 <= x485 <= 1
 0 <= x486 <= 1
 0 <= x487 <= 1
 0 <= x488 <= 1
 0 <= x489 <= 1
 0 <= x490 <= 1
 0 <= x491 <= 1
 0 <= x492 <= 1
 0 <= x493 <= 1
 0 <= x494 <= 1
 0 <= x495 <= 1
 0 <= x496 <= 1
 0 <= x497 <= 1
 0 <= x498 <= 1
 0 <= x499 <= 1
 0 <= x500 <= 1
Binaries
 x1 x2 x3 x4 x5 x6 x7 x8 x9 x10 x11 x12 x13 x14 x15 x16 x17 x18 x19 x20 x21 x22 x23 x24 x25 x26 x27 x28 x29 x30 x31 x32 x33 x34 x35 x36 x37 x38 x39 x40 x41 x42 x43 x44 x45 x46 x47 x48 x49 x50 x51 x52 x53 x54 x55 x56 x57 x58 x59 x60 x61 x62 x63 x64 x65 x66 x67 x68 x69 x70 x71 x72 x73 x74 x75 x76 x77 x78 x79 x80 x81 x82 x83 x84 x85 x86 x87 x88 x89 x90 x91 x92 x93 x94 x95 x96 x97 x98 x99 x100 x101 x102 x103 x104 x105 x106 x107 x108 x109 x110 x111 x112 x113 x114 x115 x116 x117 x118 x119 x120 x121 x122 x123 x124 x125 x126 x127 x128 x129 x130 x131 x132 x133 x134 x135 x136 x137 x138 x139 x140 x141 x142 x143 x144 x145 x146 x147 x148 x149 x150 x151 x152 x153 x154 x155 x156 x157 x158 x159 x160 x161 x162 x163 x164 x165 x166 x167 x168 x169 x170 x171 x172 x173 x174 x175 x176 x177 x178 x179 x180 x181 x182 x183 x184 x185 x186 x187 x188 x189 x190 x191 x192 x193 x194 x195 x196 x197 x198 x199 x200 x201 x202 x203 x204 x205 x206 x207 x208 x209 x210 x211 x212 x213 x214 x215 x216 x217 x218 x219 x220 x221 x222 x223 x224 x225 x226 x227 x228 x229 x230 x231 x232 x233 x234 x235 x236 x237 x238 x239 x240 x241 x242 x243 x244 x245 x246 x247 x248 x249 x250 x251 x252 x253 x254 x255 x256 x257 x258 x259 x260 x261 x262 x263 x264 x265 x266 x267 x268 x269 x270 x271 x272 x273 x274 x275 x276 x277 x278 x279 x280 x281 x282 x283 x284 x285 x286 x287 x288 x289 x290 x291 x292 x293 x294 x295 x296 x297 x298 x299 x300 x301 x302 x303 x304 x305 x306 x307 x308 x309 x310 x311 x312 x313 x314 x315 x316 x317 x318 x319 x320 x321 x322 x323 x324 x325 x326 x327 x328 x329 x330 x331 x332 x333 x334 x335 x336 x337 x338 x339 x340 x341 x342 x343 x344 x345 x346 x347 x348 x349 x350 x351 x352 x353 x354 x355 x356 x357 x358 x359 x360 x361 x362 x363 x364 x365 x366 x367 x368 x369 x370 x371 x372 x373 x374 x375 x376 x377 x378 x379 x380 x381 x382 x383 x384 x385 x386 x387 x388 x389 x390 x391 x392 x393 x394 x395 x396 x397 x398 x399 x400 x401 x402 x403 x404 x405 x406 x407 x408 x409 x410 x411 x412 x413 x414 x415 x416 x417 x418 x419 x420 x421 x422 x423 x424 x425 x426 x427 x428 x429 x430 x431 x432 x433 x434 x435 x436 x437 x438 x439 x440 x441 x442 x443 x444 x445 x446 x447 x448 x449 x450 x451 x452 x453 x454 x455 x456 x457 x458 x459 x460 x461 x462 x463 x464 x465 x466 x467 x468 x469 x470 x471 x472 x473 x474 x475 x476 x477 x478 x479 x480 x481 x482 x483 x484 x485 x486 x487 x488 x489 x490 x491 x492 x493 x494 x495 x496 x497 x498 x499 x500
End